==> HEURSEARCHEFFORT     = 2
==> MAXTIME              = 3600
==> OUTPUTLOG            = 1
FICO Xpress v8.5.9, solve started 23:41:12, Jun 8, 2019
Maximizing MILP Seating model
Original problem has:
       230 rows          300 cols         7440 elements       300 globals
Presolved problem has:
       103 rows          204 cols         2431 elements       198 globals
LP relaxation tightened
Will try to keep branch and bound tree memory usage below 7.2GB
 *** Heuristic solution found:    22.000000      Time: 0 ***
Starting concurrent solve with dual

 Concurrent-Solve,   0s
            Dual        
    objective   dual inf
 D  102.00000   .0000000
------- optimal --------
Concurrent statistics:
      Dual: 34 simplex iterations, 0.00s
Optimal solution found
 
   Its         Obj Value      S   Ninf  Nneg   Sum Dual Inf  Time
    34        102.000000      D      0     0        .000000     0
Dual solved problem
  34 simplex iterations in 0s

Final objective                         : 1.020000000000000e+02
  Max primal violation      (abs / rel) : 1.110e-16 / 9.869e-17
  Max dual violation        (abs / rel) :       0.0 /       0.0
  Max complementarity viol. (abs / rel) :       0.0 /       0.0
All values within tolerances

Starting root cutting & heuristics
 
 Its Type    BestSoln    BestBound   Sols    Add    Del     Gap     GInf   Time
   1  K     22.000000   102.000000      1     99      0   78.43%      29      0
   2  K     22.000000   102.000000      1    111     81   78.43%      43      0
   3  K     22.000000   102.000000      1     92    101   78.43%      48      0
b           28.000000   102.000000      2                 72.55%       0      0
   4  K     28.000000   102.000000      2     87     94   72.55%      35      0
   5  K     28.000000   102.000000      2    100     83   72.55%      49      0
   6  K     28.000000   102.000000      2     93     97   72.55%      47      0
   7  K     28.000000   102.000000      2     89     88   72.55%      58      0
b           35.000000   102.000000      3                 65.69%       0      0
   8  K     35.000000   102.000000      3     81     91   65.69%      37      0
   9  K     35.000000   102.000000      3     95     87   65.69%      48      0
  10  K     35.000000   102.000000      3     97     89   65.69%      58      0
  11  K     35.000000   102.000000      3     83     86   65.69%      67      0
  12  K     35.000000   102.000000      3     93     82   65.69%      72      0
  13  K     35.000000   102.000000      3     87     85   65.69%      76      0
  14  K     35.000000   102.000000      3      2     83   65.69%      39      0
  15  K     35.000000   102.000000      3      1      7   65.69%      39      0
  16  K     35.000000   102.000000      3      1     13   65.69%      39      0
  17  K     35.000000   102.000000      3     96      8   65.69%      58      0
  18  K     35.000000   102.000000      3      2     91   65.69%      39      0
b           47.000000   102.000000      4                 53.92%       0      0
  19  K     47.000000   102.000000      4     93     14   53.92%      52      0
  20  K     47.000000   102.000000      4     99    150   53.92%      59      0
  21  G     47.000000   102.000000      4     39     31   53.92%      41      0
  22  G     47.000000   102.000000      4     70    110   53.92%      55      0
Heuristic search started
Heuristic search stopped
M           49.000000   102.000000      5                 51.96%       0      0
M           55.000000   102.000000      6                 46.08%       0      0
M           60.000000   102.000000      7                 41.18%       0      0
 
Cuts in the matrix         : 39
Cut elements in the matrix : 1106
 
Starting tree search.
Deterministic mode with up to 4 running threads and up to 8 tasks.
 
    Node     BestSoln    BestBound   Sols Active  Depth     Gap     GInf   Time
       1    60.000000   102.000000      7      2      1   41.18%      45      0
       2    60.000000   102.000000      7      2      2   41.18%      57      0
       3    60.000000   102.000000      7      2      3   41.18%      45      0
       4    60.000000   102.000000      7      2      2   41.18%      35      0
       5    60.000000   102.000000      7      2      3   41.18%      48      0
       6    60.000000   102.000000      7      2      4   41.18%      46      0
       7    60.000000   102.000000      7      5      3   41.18%      47      0
       8    60.000000   102.000000      7      5      4   41.18%      48      0
       9    60.000000   102.000000      7      5      4   41.18%      27      0
      10    60.000000   102.000000      7      8      5   41.18%      38      0
      24    60.000000   102.000000      7     17     11   41.18%      53      1
      45    60.000000   102.000000      7     17     16   41.18%      38      1
      62    60.000000   102.000000      7     25     16   41.18%      53      1
      73    60.000000   102.000000      7     25      8   41.18%      52      1
      84    60.000000   102.000000      7     25     16   41.18%      33      1
      96    60.000000   102.000000      7     25     16   41.18%      47      1
     106    60.000000   102.000000      7     37     14   41.18%      42      1
     207    60.000000   102.000000      7     53     22   41.18%      21      1
     315    60.000000   102.000000      7     89     16   41.18%      47      1
B&B tree size: 1.1MB total
 
    Node     BestSoln    BestBound   Sols Active  Depth     Gap     GInf   Time
     419    60.000000   102.000000      7    101     15   41.18%      28      1
     521    60.000000   102.000000      7    141     15   41.18%      26      1
     621    60.000000   102.000000      7    141     16   41.18%      41      1
     725    60.000000   102.000000      7    182     16   41.18%      31      1
     832    60.000000   102.000000      7    225     19   41.18%      47      1
     947    60.000000   102.000000      7    248     16   41.18%      25      2
    1047    60.000000   102.000000      7    263     15   41.18%      38      2
    1147    60.000000   102.000000      7    301     21   41.18%      39      2
    1257    60.000000   102.000000      7    301     13   41.18%      51      2
    1370    60.000000   102.000000      7    350     16   41.18%      41      2
    1476    60.000000   102.000000      7    350     16   41.18%      29      2
    1583    60.000000   102.000000      7    343     19   41.18%      45      2
    1685    60.000000   102.000000      7    343     14   41.18%      47      2
    1796    60.000000   102.000000      7    343     15   41.18%      21      2
    1897    60.000000   102.000000      7    343     17   41.18%      40      2
    2003    60.000000   102.000000      7    343     16   41.18%      40      2
    2107    60.000000   102.000000      7    356     14   41.18%      51      3
    2220    60.000000   102.000000      7    356     18   41.18%      29      3
    2322    60.000000   102.000000      7    356     20   41.18%      27      3
    2430    60.000000   102.000000      7    356     13   41.18%      49      3
B&B tree size: 5.5MB total
 
    Node     BestSoln    BestBound   Sols Active  Depth     Gap     GInf   Time
    2530    60.000000   102.000000      7    422     19   41.18%      33      3
    2649    60.000000   102.000000      7    427     26   41.18%      23      3
    2752    60.000000   102.000000      7    427     19   41.18%      27      3
    2867    60.000000   102.000000      7    516     14   41.18%      45      3
    2969    60.000000   102.000000      7    516     16   41.18%      39      3
    3072    60.000000   102.000000      7    719     14   41.18%      36      3
    3183    60.000000   102.000000      7    719     16   41.18%      39      3
    3283    60.000000   102.000000      7    719     19   41.18%      23      3
    3384    60.000000   102.000000      7    719     22   41.18%      27      3
    3487    60.000000   102.000000      7    719     22   41.18%      29      3
    3590    60.000000    99.875604      7    860     14   39.93%      41      4
    3692    60.000000    99.875604      7    860     17   39.93%      19      4
    3805    60.000000    99.875604      7    856     17   39.93%      28      4
    3920    60.000000    99.875604      7    856     23   39.93%      11      4
    4038    60.000000    99.875604      7    856     24   39.93%      18      4
    4150    60.000000    99.875604      7    956     19   39.93%      47      4
    4261    60.000000    99.875604      7    956     16   39.93%      18      4
    4368    60.000000    99.875604      7    956     18   39.93%      43      4
    4469    60.000000    99.875604      7    984     27   39.93%      21      4
    4575    60.000000    99.875604      7   1011     16   39.93%      45      4
B&B tree size: 8.7MB total
 
    Node     BestSoln    BestBound   Sols Active  Depth     Gap     GInf   Time
    4683    60.000000    99.875604      7   1043     16   39.93%      38      4
    4787    60.000000    99.875604      7   1101     16   39.93%      43      4
    4890    60.000000    99.875604      7   1101     18   39.93%      22      4
    4991    60.000000    99.875604      7   1101     16   39.93%      55      5
    5104    60.000000    99.875604      7   1101     16   39.93%      35      5
    5210    60.000000    99.875604      7   1132     14   39.93%      38      5
    5328    60.000000    99.875604      7   1132     26   39.93%      19      5
    5431    60.000000    99.875604      7   1132     22   39.93%      21      5
    5531    60.000000    99.875604      7   1132     17   39.93%      23      5
    5638    60.000000    99.875604      7   1132     20   39.93%      21      5
    5758    60.000000    99.875604      7   1165     21   39.93%      19      5
    5861    60.000000    99.875604      7   1165     21   39.93%      35      5
    5974    60.000000    99.875604      7   1165     25   39.93%      20      5
    6075    60.000000    95.471550      7   1239     17   37.15%      29      5
    6190    60.000000    95.471550      7   1333     21   37.15%       6      5
    6297    60.000000    95.471550      7   1389     25   37.15%      21      6
    6398    60.000000    95.471550      7   1465     16   37.15%      28      6
    6510    60.000000    95.471550      7   1465     21   37.15%       9      6
    6616    60.000000    95.471550      7   1465     22   37.15%      30      6
    6727    60.000000    95.471550      7   1465     20   37.15%      37      6
B&B tree size: 12MB total
 
    Node     BestSoln    BestBound   Sols Active  Depth     Gap     GInf   Time
    6829    60.000000    95.471550      7   1547     16   37.15%      50      6
    6930    60.000000    95.471550      7   1547     20   37.15%      31      6
    7045    60.000000    95.471550      7   1547     23   37.15%      16      6
    7162    60.000000    95.471550      7   1547     24   37.15%      37      6
    7268    60.000000    95.471550      7   1547     19   37.15%      34      6
    7381    60.000000    95.471550      7   1547     20   37.15%      43      6
    7493    60.000000    92.931199      7   1580     17   35.44%      35      7
    7595    60.000000    92.931199      7   1580     30   35.44%       6      7
    7696    60.000000    92.931199      7   1580     17   35.44%      48      7
    7812    60.000000    92.931199      7   1590     20   35.44%      16      7
    7913    60.000000    92.931199      7   1612     21   35.44%      25      7
    8031    60.000000    92.931199      7   1612     21   35.44%      48      7
    8139    60.000000    92.931199      7   1612     18   35.44%      16      7
    8253    60.000000    92.931199      7   1612     19   35.44%      30      7
    8364    60.000000    92.931199      7   1671     22   35.44%      43      7
    8466    60.000000    92.931199      7   1671     18   35.44%      39      7
    8572    60.000000    87.846224      7   1743     22   31.70%      32      7
    8676    60.000000    87.846224      7   1790     22   31.70%      28      7
    8781    60.000000    87.846224      7   1803     20   31.70%      45      7
    8896    60.000000    87.846224      7   1810     20   31.70%      29      7
B&B tree size: 15MB total
 
    Node     BestSoln    BestBound   Sols Active  Depth     Gap     GInf   Time
    8998    60.000000    87.846224      7   1810     15   31.70%      35      8
    9109    60.000000    86.932839      7   1916     19   30.98%      48      8
    9226    60.000000    86.932839      7   1928     19   30.98%      47      8
    9340    60.000000    86.932839      7   1928     17   30.98%      46      8
    9442    60.000000    86.932839      7   1928     26   30.98%      16      8
    9543    60.000000    86.932839      7   1928     26   30.98%      15      8
    9660    60.000000    86.932839      7   1928     17   30.98%      56      8
    9761    60.000000    86.932839      7   1928     23   30.98%      45      8
    9872    60.000000    86.932839      7   1934     27   30.98%      31      8
    9972    60.000000    86.932839      7   1934     20   30.98%      26      8
   10072    60.000000    86.932839      7   1973     16   30.98%      19      8
   11080    60.000000    82.820362      7   2130     18   27.55%      34      9
   12081    60.000000    82.759198      7   2269     16   27.50%      34     10
   13086    60.000000    82.759198      7   2282     22   27.50%      27     10
   14087    60.000000    82.000000      7   2529      9   26.83%      46     11
   15095    60.000000    82.000000      7   2546     17   26.83%      37     12
   16101    60.000000    81.146115      7   2701     22   26.06%      29     12
   17108    60.000000    79.592360      7   2752     21   24.62%      37     13
   18120    60.000000    78.648340      7   2761     24   23.71%      17     14
   19149    60.000000    78.033328      7   2758     24   23.11%      18     14
B&B tree size: 25MB total
 
    Node     BestSoln    BestBound   Sols Active  Depth     Gap     GInf   Time
   20153    60.000000    77.333333      7   2781     23   22.41%      37     15
   21162    60.000000    76.736056      7   2811     13   21.81%      19     16
   22170    60.000000    76.000000      7   2783     22   21.05%      31     16
   23177    60.000000    75.450137      7   2729     23   20.48%      26     17
   24184    60.000000    75.000000      7   2739     24   20.00%      39     17
   25184    60.000000    74.635494      7   2683     28   19.61%      20     18
   26189    60.000000    74.000000      7   2641     24   18.92%      25     18
   27209    60.000000    74.000000      7   2621     26   18.92%      27     19
   28215    60.000000    73.214953      7   2590     19   18.05%      28     19
   29215    60.000000    72.531911      7   2538     16   17.28%      29     20
   30215    60.000000    72.014278      7   2426     14   16.68%      34     20
   31215    60.000000    71.311590      7   2295     19   15.86%      33     21
   32215    60.000000    70.395746      7   2152     21   14.77%      22     22
   33215    60.000000    70.000000      7   2035     21   14.29%      43     22
   34219    60.000000    69.068559      7   1840     24   13.13%      17     22
   35233    60.000000    69.000000      7   1690     21   13.04%      26     23
   36235    60.000000    68.000000      7   1484     27   11.76%      12     23
   37235    60.000000    67.000000      7   1251     12   10.45%      30     24
   38241    60.000000    67.000000      7    970     18   10.45%      40     24
   39241    60.000000    64.680556      7    553     20    7.24%      25     25
B&B tree size: 3.4MB total
 
    Node     BestSoln    BestBound   Sols Active  Depth     Gap     GInf   Time
   40241    60.000000    61.000000      7     11     24    1.64%      26     25
 *** Search completed ***     Time:    25 Nodes:      40319
Number of integer feasible solutions found is 7
Best integer solution found is    60.000000
Best bound is    60.000000
Uncrunching matrix
